50
    1    24    24
    2    47    47
    3    21    21
    4    33    33
    5    11    11
    6    25    25
    7     8     8
    8     9     9
    9    35    35
   10    14    14
   11    42    42
   12    48    48
   13    10    10
   14    34    34
   15    20    20
   16     4     4
   17    34    34
   18    45    45
   19    39    39
   20    43    43
   21     6     6
   22    50    50
   23    16    16
   24    32    32
   25    19    19
   26    12    12
   27    39    39
   28    35    35
   29    33    33
   30    36    36
   31    27    27
   32     9     9
   33    46    46
   34    35    35
   35    11    11
   36    49    49
   37    28    28
   38    27    27
   39    33    33
   40    16    16
   41    26    26
   42     4     4
   43     4     4
   44    30    30
   45    29    29
   46    27    27
   47    39    39
   48    29    29
   49     7     7
   50    20    20
660
